files/upTests/__reps/ExplicitVarSizeWithDefault/smallerNested/0003.eprime
language ESSENCE' 1.0

find s_SetExplicit_SetOccurrence:
        matrix indexed by [int(1..2), int(1..4)] of bool
such that
    flatten(s_SetExplicit_SetOccurrence[1, ..])
    <lex
    flatten(s_SetExplicit_SetOccurrence[2, ..]),
    forAll v__0 : int(1..2)
        . (sum v__1 : int(1..4) . s_SetExplicit_SetOccurrence[v__0, v__1]) >= 3,
    forAll v__0 : int(1..2)
        . (exists v__1 : int(1..4)
               . s_SetExplicit_SetOccurrence[v__0, v__1] /\ v__1 = 2)
