files/upTests/__reps/ExplicitVarSizeWithDefault/smallerNested/0003.eprime.solution
language ESSENCE' 1.0
$ minion Nodes: 3
$ minion TotalTime: 0.000592
$ Savile Row TotalTime: 0.181
letting s_SetExplicit_SetOccurrence be [[false, true, true, true;int(1..4)], 
[true, true, false, true;int(1..4)];int(1..2)]
